\* BABBAbAbaBB *\
Minimize
minimize_attaching_disc: 0disc1 + 0disc2 + 10disc1 + 10disc2 + 11disc1
 + 11disc2 + 12disc1 + 12disc2 + 13disc1 + 13disc2 + 1disc1 + 1disc2 + 2disc1
 + 2disc2 + 3disc1 + 3disc2 + 4disc1 + 4disc2 + 5disc1 + 5disc2 + 6disc1
 + 6disc2 + 7disc1 + 7disc2 + 8disc1 + 8disc2 + 9disc1 + 9disc2
Subject To
_C1: 0disc2 + 14 + 3 >= 2
_C10: 0disc1 + 0disc2 + 14 + 17 + 3 >= 3
_C100: 18 + 21 + 32 + 35 >= 2
_C101: 18 + 35 + 7disc2 >= 2
_C102: 18 + 21 + 32 + 35 + 7disc2 >= 3
_C103: 18 + 32 + 7disc1 >= 2
_C104: 18 + 21 + 7disc1 + 7disc2 >= 2
_C105: 18 + 21 + 32 + 7disc1 + 7disc2 >= 3
_C106: 21 + 35 + 7disc1 >= 2
_C107: 32 + 35 + 7disc1 + 7disc2 >= 2
_C108: 21 + 32 + 35 + 7disc1 + 7disc2 >= 3
_C109: 18 + 21 + 32 + 35 + 7disc1 >= 3
_C11: 0 + 0disc1 + 14 + 17 + 3 >= 3
_C110: 18 + 32 + 35 + 7disc1 + 7disc2 >= 3
_C111: 18 + 21 + 35 + 7disc1 + 7disc2 >= 3
_C112: 18 + 21 + 32 + 35 + 7disc1 + 7disc2 >= 4
_C113: 23 + 41 + 8disc2 >= 2
_C114: 20 + 41 + 8disc1 >= 2
_C115: 20 + 23 + 8disc1 + 8disc2 >= 2
_C116: 20 + 23 + 41 + 8disc1 + 8disc2 >= 3
_C117: 19 + 45 + 9disc2 >= 2
_C118: 16 + 19 + 42 + 45 >= 2
_C119: 16 + 42 + 9disc2 >= 2
_C12: 0 + 0disc1 + 0disc2 + 14 + 17 >= 3
_C120: 16 + 19 + 42 + 45 + 9disc2 >= 3
_C121: 16 + 45 + 9disc1 >= 2
_C122: 16 + 19 + 9disc1 + 9disc2 >= 2
_C123: 16 + 19 + 45 + 9disc1 + 9disc2 >= 3
_C124: 19 + 42 + 9disc1 >= 2
_C125: 42 + 45 + 9disc1 + 9disc2 >= 2
_C126: 19 + 42 + 45 + 9disc1 + 9disc2 >= 3
_C127: 16 + 19 + 42 + 45 + 9disc1 >= 3
_C128: 16 + 42 + 45 + 9disc1 + 9disc2 >= 3
_C129: 16 + 19 + 42 + 9disc1 + 9disc2 >= 3
_C13: 0 + 0disc1 + 0disc2 + 17 + 3 >= 3
_C130: 16 + 19 + 42 + 45 + 9disc1 + 9disc2 >= 4
_C131: 10disc2 + 15 + 53 >= 2
_C132: 12 + 15 + 50 + 53 >= 2
_C133: 10disc2 + 12 + 50 >= 2
_C134: 10disc2 + 12 + 15 + 50 + 53 >= 3
_C135: 10disc1 + 12 + 53 >= 2
_C136: 10disc1 + 10disc2 + 12 + 15 >= 2
_C137: 10disc1 + 10disc2 + 12 + 15 + 53 >= 3
_C138: 10disc1 + 15 + 50 >= 2
_C139: 10disc1 + 10disc2 + 50 + 53 >= 2
_C14: 0 + 0disc1 + 0disc2 + 14 + 17 + 3 >= 4
_C140: 10disc1 + 10disc2 + 15 + 50 + 53 >= 3
_C141: 10disc1 + 12 + 15 + 50 + 53 >= 3
_C142: 10disc1 + 10disc2 + 12 + 50 + 53 >= 3
_C143: 10disc1 + 10disc2 + 12 + 15 + 50 >= 3
_C144: 10disc1 + 10disc2 + 12 + 15 + 50 + 53 >= 4
_C145: 25 + 36 + 39 >= 2
_C146: 11disc2 + 25 + 36 + 39 >= 3
_C147: 11disc1 + 36 >= 2
_C148: 11disc1 + 11disc2 + 25 + 36 >= 3
_C149: 11disc1 + 25 + 39 >= 2
_C15: 1disc2 + 30 + 7 >= 2
_C150: 11disc1 + 25 + 36 + 39 >= 3
_C151: 11disc1 + 11disc2 + 36 + 39 >= 3
_C152: 11disc1 + 11disc2 + 25 + 36 + 39 >= 4
_C153: 12disc2 + 31 + 49 >= 2
_C154: 28 + 31 + 46 + 49 >= 2
_C155: 12disc2 + 28 + 46 >= 2
_C156: 12disc2 + 28 + 31 + 46 + 49 >= 3
_C157: 12disc1 + 28 + 49 >= 2
_C158: 12disc1 + 12disc2 + 28 + 31 >= 2
_C159: 12disc1 + 12disc2 + 28 + 31 + 49 >= 3
_C16: 30 + 33 + 4 + 7 >= 2
_C160: 12disc1 + 31 + 46 >= 2
_C161: 12disc1 + 12disc2 + 46 + 49 >= 2
_C162: 12disc1 + 12disc2 + 31 + 46 + 49 >= 3
_C163: 12disc1 + 28 + 31 + 46 + 49 >= 3
_C164: 12disc1 + 12disc2 + 28 + 46 + 49 >= 3
_C165: 12disc1 + 12disc2 + 28 + 31 + 46 >= 3
_C166: 12disc1 + 12disc2 + 28 + 31 + 46 + 49 >= 4
_C167: 13disc2 + 29 + 55 >= 2
_C168: 26 + 29 + 52 + 55 >= 2
_C169: 13disc2 + 26 + 52 >= 2
_C17: 1disc2 + 33 + 4 >= 2
_C170: 13disc2 + 26 + 29 + 52 + 55 >= 3
_C171: 13disc1 + 26 + 55 >= 2
_C172: 13disc1 + 13disc2 + 26 + 29 >= 2
_C173: 13disc1 + 13disc2 + 26 + 29 + 55 >= 3
_C174: 13disc1 + 29 + 52 >= 2
_C175: 13disc1 + 13disc2 + 52 + 55 >= 2
_C176: 13disc1 + 13disc2 + 29 + 52 + 55 >= 3
_C177: 13disc1 + 26 + 29 + 52 + 55 >= 3
_C178: 13disc1 + 13disc2 + 26 + 52 + 55 >= 3
_C179: 13disc1 + 13disc2 + 26 + 29 + 52 >= 3
_C18: 1disc2 + 30 + 33 + 4 + 7 >= 3
_C180: 13disc1 + 13disc2 + 26 + 29 + 52 + 55 >= 4
_C181: 0 + 16 + 31 + 43 + 48 + 7 <= 4
_C182: 1 + 14 + 50 <= 1
_C183: 17 + 2 + 45 <= 1
_C184: 15 + 28 + 3 + 47 + 52 <= 3
_C185: 19 + 32 + 4 + 44 <= 2
_C186: 30 + 46 + 5 <= 1
_C187: 21 + 33 + 41 + 6 <= 2
_C188: 23 + 36 + 40 + 8 <= 2
_C189: 18 + 34 + 42 + 9 <= 2
_C19: 1disc1 + 30 + 4 >= 2
_C190: 10 + 13 + 25 + 26 + 37 + 53 <= 4
_C191: 11 + 20 + 24 + 35 + 39 <= 3
_C192: 12 + 27 + 51 + 55 <= 2
_C193: 29 + 49 + 54 <= 1
_C2: 0 + 14 + 17 + 3 >= 2
_C20: 1disc1 + 1disc2 + 4 + 7 >= 2
_C21: 1disc1 + 1disc2 + 30 + 4 + 7 >= 3
_C22: 1disc1 + 33 + 7 >= 2
_C23: 1disc1 + 1disc2 + 30 + 33 >= 2
_C24: 1disc1 + 1disc2 + 30 + 33 + 7 >= 3
_C25: 1disc1 + 30 + 33 + 4 + 7 >= 3
_C26: 1disc1 + 1disc2 + 30 + 33 + 4 >= 3
_C27: 1disc1 + 1disc2 + 33 + 4 + 7 >= 3
_C28: 1disc1 + 1disc2 + 30 + 33 + 4 + 7 >= 4
_C29: 2disc2 + 47 + 5 >= 2
_C3: 0 + 0disc2 + 17 >= 2
_C30: 2 + 44 + 47 + 5 >= 2
_C31: 2 + 2disc2 + 44 >= 2
_C32: 2 + 2disc2 + 44 + 47 + 5 >= 3
_C33: 2 + 2disc1 + 47 >= 2
_C34: 2 + 2disc1 + 2disc2 + 5 >= 2
_C35: 2 + 2disc1 + 2disc2 + 47 + 5 >= 3
_C36: 2disc1 + 44 + 5 >= 2
_C37: 2disc1 + 2disc2 + 44 + 47 >= 2
_C38: 2disc1 + 2disc2 + 44 + 47 + 5 >= 3
_C39: 2 + 2disc1 + 44 + 47 + 5 >= 3
_C4: 0 + 0disc2 + 14 + 17 + 3 >= 3
_C40: 2 + 2disc1 + 2disc2 + 44 + 47 >= 3
_C41: 2 + 2disc1 + 2disc2 + 44 + 5 >= 3
_C42: 2 + 2disc1 + 2disc2 + 44 + 47 + 5 >= 4
_C43: 3disc2 + 48 + 54 >= 2
_C44: 1 + 48 + 51 + 54 >= 2
_C45: 1 + 3disc2 + 51 >= 2
_C46: 1 + 3disc2 + 48 + 51 + 54 >= 3
_C47: 1 + 3disc1 + 48 >= 2
_C48: 1 + 3disc1 + 3disc2 + 54 >= 2
_C49: 1 + 3disc1 + 3disc2 + 48 + 54 >= 3
_C5: 0 + 0disc1 + 14 >= 2
_C50: 3disc1 + 51 + 54 >= 2
_C51: 3disc1 + 3disc2 + 48 + 51 >= 2
_C52: 3disc1 + 3disc2 + 48 + 51 + 54 >= 3
_C53: 1 + 3disc1 + 48 + 51 + 54 >= 3
_C54: 1 + 3disc1 + 3disc2 + 48 + 51 >= 3
_C55: 1 + 3disc1 + 3disc2 + 51 + 54 >= 3
_C56: 1 + 3disc1 + 3disc2 + 48 + 51 + 54 >= 4
_C57: 11 + 34 + 4disc2 >= 2
_C58: 11 + 34 + 37 + 8 >= 2
_C59: 37 + 4disc2 + 8 >= 2
_C6: 0 + 0disc1 + 0disc2 + 3 >= 2
_C60: 11 + 34 + 37 + 4disc2 + 8 >= 3
_C61: 34 + 4disc1 + 8 >= 2
_C62: 11 + 4disc1 + 4disc2 + 8 >= 2
_C63: 11 + 34 + 4disc1 + 4disc2 + 8 >= 3
_C64: 11 + 37 + 4disc1 >= 2
_C65: 34 + 37 + 4disc1 + 4disc2 >= 2
_C66: 11 + 34 + 37 + 4disc1 + 4disc2 >= 3
_C67: 11 + 34 + 37 + 4disc1 + 8 >= 3
_C68: 34 + 37 + 4disc1 + 4disc2 + 8 >= 3
_C69: 11 + 37 + 4disc1 + 4disc2 + 8 >= 3
_C7: 0 + 0disc1 + 0disc2 + 14 + 3 >= 3
_C70: 11 + 34 + 37 + 4disc1 + 4disc2 + 8 >= 4
_C71: 43 + 5disc2 + 9 >= 2
_C72: 40 + 43 + 6 + 9 >= 2
_C73: 40 + 5disc2 + 6 >= 2
_C74: 40 + 43 + 5disc2 + 6 + 9 >= 3
_C75: 43 + 5disc1 + 6 >= 2
_C76: 5disc1 + 5disc2 + 6 + 9 >= 2
_C77: 43 + 5disc1 + 5disc2 + 6 + 9 >= 3
_C78: 40 + 5disc1 + 9 >= 2
_C79: 40 + 43 + 5disc1 + 5disc2 >= 2
_C8: 0disc1 + 17 + 3 >= 2
_C80: 40 + 43 + 5disc1 + 5disc2 + 9 >= 3
_C81: 40 + 43 + 5disc1 + 6 + 9 >= 3
_C82: 40 + 43 + 5disc1 + 5disc2 + 6 >= 3
_C83: 40 + 5disc1 + 5disc2 + 6 + 9 >= 3
_C84: 40 + 43 + 5disc1 + 5disc2 + 6 + 9 >= 4
_C85: 13 + 24 + 6disc2 >= 2
_C86: 10 + 13 + 24 + 27 >= 2
_C87: 10 + 27 + 6disc2 >= 2
_C88: 10 + 13 + 24 + 27 + 6disc2 >= 3
_C89: 10 + 24 + 6disc1 >= 2
_C9: 0disc1 + 0disc2 + 14 + 17 >= 2
_C90: 10 + 13 + 6disc1 + 6disc2 >= 2
_C91: 10 + 13 + 24 + 6disc1 + 6disc2 >= 3
_C92: 13 + 27 + 6disc1 >= 2
_C93: 24 + 27 + 6disc1 + 6disc2 >= 2
_C94: 13 + 24 + 27 + 6disc1 + 6disc2 >= 3
_C95: 10 + 13 + 24 + 27 + 6disc1 >= 3
_C96: 10 + 24 + 27 + 6disc1 + 6disc2 >= 3
_C97: 10 + 13 + 27 + 6disc1 + 6disc2 >= 3
_C98: 10 + 13 + 24 + 27 + 6disc1 + 6disc2 >= 4
_C99: 21 + 32 + 7disc2 >= 2
End
